column=9;
row=9;
Board=[|6,0,0,1,0,0,5,0,7|7,4,3,0,0,5,0,6,1|1,5,9,0,0,0,0,0,3|2,1,0,7,8,9,0,0,0|8,7,0,6,0,0,1,2,0|0,9,0,4,1,0,0,0,0|0,0,1,3,0,8,9,0,0|5,6,8,0,4,0,0,0,0|0,3,7,5,0,1,0,8,4|];
horizontal=[|1,0,0,1,1,0,0,2|2,2,2,1,2,1,2,2|0,0,2,2,0,0,0,2|2,0,1,0,1,0,0,1|0,0,0,0,2,0,0,1|0,2,2,2,1,1,0,0|0,2,1,1,1,0,0,0|0,0,0,2,0,2,2,1|2,1,2,0,2,1,1,2|];
vertical=[|1,2,0,1,0,1,1,2,0|0,1,0,0,2,0,0,0,1|0,2,0,0,0,0,1,0,0|1,0,0,2,0,2,0,0,1|2,0,1,2,2,0,1,0,0|1,2,0,2,0,0,0,1,0|1,1,1,1,0,2,0,2,2|0,2,2,0,0,0,0,1,1|];
